\ This file has been generated by DOcplex
\ ENCODING=ISO-8859-1
\Problem name: random_problem.lp

Minimize
 obj: - 632 x0 - 316 x1 - 158 x2 + 1072 x3 + 536 x4 + 268 x5 + [ 41280 x0^2
      + 41280 x0*x1 + 20640 x0*x2 + 7040 x0*x3 + 3520 x0*x4 + 1760 x0*x5
      + 10320 x1^2 + 10320 x1*x2 + 3520 x1*x3 + 1760 x1*x4 + 880 x1*x5
      + 2580 x2^2 + 1760 x2*x3 + 880 x2*x4 + 440 x2*x5 + 3808 x3^2 + 3808 x3*x4
      + 1904 x3*x5 + 952 x4^2 + 952 x4*x5 + 238 x5^2 ]/2
Subject To
 c0: 4 x0 + 2 x1 + x2 + 4 x3 + 2 x4 + x5 = 7

Bounds
 0 <= x0 <= 1
 0 <= x1 <= 1
 0 <= x2 <= 1
 0 <= x3 <= 1
 0 <= x4 <= 1
 0 <= x5 <= 1

Binaries
 x0 x1 x2 x3 x4 x5
End
